solution status: optimal solution found
objective value:                                    0
$_21__9_y                                          23 	(obj:0)
$_21__9_z                                          21 	(obj:0)
one.pinholes[0].hole_out_c_y                       20 	(obj:0)
one.pinholes[0].hole_out_c_z                       22 	(obj:0)
one.thingy.devices[2].thingy.vs3_y                   25 	(obj:0)
one.thingy.devices[2].thingy.vs3_z                   20 	(obj:0)
$_18__9_y                                          25 	(obj:0)
$_18__9_z                                          25 	(obj:0)
one.thingy.devices[1].thingy.vs3_y                   22 	(obj:0)
one.thingy.devices[1].thingy.vs3_z                   21 	(obj:0)
one.pinholes[2].hole_out_c_y                       24 	(obj:0)
one.pinholes[2].hole_out_c_z                       21 	(obj:0)
one.pinholes[3].hole_out_c_y                       24 	(obj:0)
one.pinholes[3].hole_out_c_z                       17 	(obj:0)
one.thingy.devices[3].thingy.vs3_y                   23 	(obj:0)
one.thingy.devices[3].thingy.vs3_z                   18 	(obj:0)
one.ctrl_a[11].hole_y                              21 	(obj:0)
one.ctrl_a[11].hole_z                              22 	(obj:0)
$_20__9_y                                          24 	(obj:0)
$_20__9_z                                          23 	(obj:0)
$_19__9_y                                          23 	(obj:0)
$_19__9_z                                          25 	(obj:0)
one.ctrl_a[10].hole_y                              20 	(obj:0)
one.ctrl_a[10].hole_z                              23 	(obj:0)
one.ctrl_a[11].flush_y                             23 	(obj:0)
one.ctrl_a[11].flush_z                             17 	(obj:0)
one.pinholes[1].hole_out_c_y                       25 	(obj:0)
one.pinholes[1].hole_out_c_z                       23 	(obj:0)
one.ctrl_a[10].flush_y                             24 	(obj:0)
one.ctrl_a[10].flush_z                             20 	(obj:0)
one.thingy.devices[0].thingy.vs3_y                   20 	(obj:0)
one.thingy.devices[0].thingy.vs3_z                   21 	(obj:0)
